36
50
4498
413
99
6253
32
746
300
71
3138
176
375
0
421
0
92
1947
545
733
42
18
0
236
25
38
453
1229
863
754
314
2244
212
115
129
2807
46
73
67
312
59
199
116
2215
1365
559
1862
73
1219
2247
2938
507
0
2944
378
653
0
449
205
116
1242
28
66
76
1315
4898
72
60
92
190
1984
106
142
429
98
4466
2909
2198
69
1009
1297
7796
3014
4223
2027
1323
583
304
60
762
350
0
333
47
6236
41
1360
33
47
287
